; DUP2 MLOAD DUP2 DUP1 DUP5 SWAP3 => DUP2 DUP2 DUP3 DUP5 MLOAD
(set-option :produce-proofs true)
; 
(set-info :status unknown)
(declare-fun storage_t ((_ BitVec 256) (_ BitVec 256) (_ BitVec 256) Int (_ BitVec 256)) (_ BitVec 256))
(declare-fun storage_s ((_ BitVec 256) (_ BitVec 256) (_ BitVec 256) Int (_ BitVec 256)) (_ BitVec 256))
(declare-fun exc_halt_t (Int) Bool)
(declare-fun exc_halt_s (Int) Bool)
(declare-fun stack_t ((_ BitVec 256) (_ BitVec 256) (_ BitVec 256) Int (_ BitVec 6)) (_ BitVec 256))
(declare-fun stack_s ((_ BitVec 256) (_ BitVec 256) (_ BitVec 256) Int (_ BitVec 6)) (_ BitVec 256))
(declare-fun sc_t (Int) (_ BitVec 6))
(declare-fun sc_s (Int) (_ BitVec 6))
(declare-fun used_gas_t ((_ BitVec 256) (_ BitVec 256) (_ BitVec 256) Int) Int)
(declare-fun used_gas_s ((_ BitVec 256) (_ BitVec 256) (_ BitVec 256) Int) Int)
(declare-fun f_MLOAD ((_ BitVec 256) (_ BitVec 256) (_ BitVec 256) (_ BitVec 256)) (_ BitVec 256))
(assert
 (exists ((x_0 (_ BitVec 256)) (x_1 (_ BitVec 256)) (x_MLOAD_0 (_ BitVec 256)) )(let (($x7833 (forall ((w (_ BitVec 256)) )(let ((?x7389 (storage_t x_0 x_1 x_MLOAD_0 5 w)))
 (let ((?x979 (storage_s x_0 x_1 x_MLOAD_0 6 w)))
 (= ?x979 ?x7389))))
 ))
 (let (($x886 (exc_halt_t 5)))
 (let (($x772 (exc_halt_s 6)))
 (let (($x889 (= $x772 $x886)))
 (let (($x6825 (forall ((n (_ BitVec 6)) )(let ((?x8858 (stack_t x_0 x_1 x_MLOAD_0 5 n)))
 (let ((?x1327 (stack_s x_0 x_1 x_MLOAD_0 6 n)))
 (let (($x1051 (= ?x1327 ?x8858)))
 (let ((?x919 (sc_t 5)))
 (let (($x644 (bvsle ?x919 n)))
 (or $x644 $x1051)))))))
 ))
 (let ((?x919 (sc_t 5)))
 (let ((?x926 (sc_s 6)))
 (let (($x929 (= ?x926 ?x919)))
 (let ((?x9479 (used_gas_t x_0 x_1 x_MLOAD_0 0)))
 (let ((?x2499 (used_gas_s x_0 x_1 x_MLOAD_0 0)))
 (let (($x3344 (= ?x2499 ?x9479)))
 (let (($x7268 (forall ((w (_ BitVec 256)) )(let ((?x2959 (storage_t x_0 x_1 x_MLOAD_0 0 w)))
 (let ((?x6315 (storage_s x_0 x_1 x_MLOAD_0 0 w)))
 (= ?x6315 ?x2959))))
 ))
 (let (($x56 (exc_halt_t 0)))
 (let (($x57 (exc_halt_s 0)))
 (let (($x58 (= $x57 $x56)))
 (let (($x6495 (forall ((n (_ BitVec 6)) )(let ((?x63 (sc_t 0)))
 (let (($x2695 (bvsle ?x63 n)))
 (let ((?x10282 (stack_t x_0 x_1 x_MLOAD_0 0 n)))
 (let ((?x10544 (stack_s x_0 x_1 x_MLOAD_0 0 n)))
 (let (($x2642 (= ?x10544 ?x10282)))
 (or $x2642 $x2695)))))))
 ))
 (let ((?x63 (sc_t 0)))
 (let ((?x72 (sc_s 0)))
 (let (($x73 (= ?x72 ?x63)))
 (let (($x458 (= $x886 (or (exc_halt_t 4) (not (bvsle (_ bv0 6) (bvadd (_ bv63 6) (sc_t 4))))))))
 (let (($x5860 (forall ((w (_ BitVec 256)) )(let ((?x9493 (storage_t x_0 x_1 x_MLOAD_0 4 w)))
 (let ((?x7389 (storage_t x_0 x_1 x_MLOAD_0 5 w)))
 (= ?x7389 ?x9493))))
 ))
 (let (($x8571 (forall ((n (_ BitVec 6)) )(let ((?x3757 (sc_t 4)))
 (let ((?x3514 (bvadd (_ bv63 6) ?x3757)))
 (let (($x10333 (bvsle ?x3514 n)))
 (let ((?x9583 (stack_t x_0 x_1 x_MLOAD_0 4 n)))
 (let ((?x8858 (stack_t x_0 x_1 x_MLOAD_0 5 n)))
 (or (= ?x8858 ?x9583) $x10333)))))))
 ))
 (let ((?x3757 (sc_t 4)))
 (let (($x9261 (= ?x919 ?x3757)))
 (let (($x8251 (= (used_gas_t x_0 x_1 x_MLOAD_0 5) (+ 3 (used_gas_t x_0 x_1 x_MLOAD_0 4)))))
 (let ((?x3514 (bvadd (_ bv63 6) ?x3757)))
 (let ((?x1335 (stack_t x_0 x_1 x_MLOAD_0 4 ?x3514)))
 (let (($x4297 (= (stack_t x_0 x_1 x_MLOAD_0 5 (bvadd (_ bv63 6) ?x919)) (f_MLOAD x_0 x_1 x_MLOAD_0 ?x1335))))
 (let (($x10336 (exc_halt_t 3)))
 (let (($x1227 (not (= ((_ extract 6 6) (bvadd (_ bv1 7) (concat (_ bv0 1) (sc_t 3)))) (_ bv0 1)))))
 (let (($x3723 (exc_halt_t 4)))
 (let (($x6771 (forall ((w (_ BitVec 256)) )(let ((?x3025 (storage_t x_0 x_1 x_MLOAD_0 3 w)))
 (let ((?x9493 (storage_t x_0 x_1 x_MLOAD_0 4 w)))
 (= ?x9493 ?x3025))))
 ))
 (let (($x6210 (forall ((n (_ BitVec 6)) )(let ((?x9877 (stack_t x_0 x_1 x_MLOAD_0 3 n)))
 (let ((?x9583 (stack_t x_0 x_1 x_MLOAD_0 4 n)))
 (or (bvsle (bvadd (_ bv59 6) (sc_t 3)) n) (= ?x9583 ?x9877)))))
 ))
 (let (($x3244 (= ?x3757 (bvadd (_ bv1 6) (sc_t 3)))))
 (let ((?x6197 (used_gas_t x_0 x_1 x_MLOAD_0 4)))
 (let ((?x2012 (sc_t 3)))
 (let ((?x8054 (bvadd (_ bv63 6) ?x2012)))
 (let ((?x7386 (stack_t x_0 x_1 x_MLOAD_0 3 ?x8054)))
 (let (($x5891 (= (stack_t x_0 x_1 x_MLOAD_0 4 (bvadd (_ bv62 6) ?x2012)) (stack_t x_0 x_1 x_MLOAD_0 3 (bvadd (_ bv62 6) ?x2012)))))
 (let (($x7937 (= (stack_t x_0 x_1 x_MLOAD_0 4 (bvadd (_ bv61 6) ?x2012)) (stack_t x_0 x_1 x_MLOAD_0 3 (bvadd (_ bv61 6) ?x2012)))))
 (let (($x5612 (= (stack_t x_0 x_1 x_MLOAD_0 4 (bvadd (_ bv60 6) ?x2012)) (stack_t x_0 x_1 x_MLOAD_0 3 (bvadd (_ bv60 6) ?x2012)))))
 (let ((?x1616 (bvadd (_ bv59 6) ?x2012)))
 (let ((?x8172 (stack_t x_0 x_1 x_MLOAD_0 3 ?x1616)))
 (let (($x1242 (not (= ((_ extract 6 6) (bvadd (_ bv1 7) (concat (_ bv0 1) (sc_t 2)))) (_ bv0 1)))))
 (let (($x903 (exc_halt_t 2)))
 (let (($x9146 (forall ((w (_ BitVec 256)) )(let ((?x7383 (storage_t x_0 x_1 x_MLOAD_0 2 w)))
 (let ((?x3025 (storage_t x_0 x_1 x_MLOAD_0 3 w)))
 (= ?x3025 ?x7383))))
 ))
 (let (($x8435 (forall ((n (_ BitVec 6)) )(let ((?x8998 (stack_t x_0 x_1 x_MLOAD_0 2 n)))
 (let ((?x9877 (stack_t x_0 x_1 x_MLOAD_0 3 n)))
 (or (bvsle (bvadd (_ bv61 6) (sc_t 2)) n) (= ?x9877 ?x8998)))))
 ))
 (let (($x4906 (= ?x2012 (bvadd (_ bv1 6) (sc_t 2)))))
 (let ((?x9709 (used_gas_t x_0 x_1 x_MLOAD_0 3)))
 (let ((?x4056 (sc_t 2)))
 (let ((?x2466 (bvadd (_ bv63 6) ?x4056)))
 (let ((?x8596 (stack_t x_0 x_1 x_MLOAD_0 2 ?x2466)))
 (let (($x9500 (= (stack_t x_0 x_1 x_MLOAD_0 3 (bvadd (_ bv62 6) ?x4056)) (stack_t x_0 x_1 x_MLOAD_0 2 (bvadd (_ bv62 6) ?x4056)))))
 (let ((?x8110 (bvadd (_ bv61 6) ?x4056)))
 (let ((?x2662 (stack_t x_0 x_1 x_MLOAD_0 2 ?x8110)))
 (let (($x9044 (not (bvsle (_ bv0 6) (bvadd (_ bv62 6) (sc_t 1))))))
 (let (($x1920 (exc_halt_t 1)))
 (let (($x1208 (not (= ((_ extract 6 6) (bvadd (_ bv1 7) (concat (_ bv0 1) (sc_t 1)))) (_ bv0 1)))))
 (let (($x4581 (= $x903 (or $x1208 $x1920 $x9044))))
 (let (($x7760 (forall ((w (_ BitVec 256)) )(let ((?x8925 (storage_t x_0 x_1 x_MLOAD_0 1 w)))
 (let ((?x7383 (storage_t x_0 x_1 x_MLOAD_0 2 w)))
 (= ?x7383 ?x8925))))
 ))
 (let (($x8831 (forall ((n (_ BitVec 6)) )(let ((?x8118 (stack_t x_0 x_1 x_MLOAD_0 1 n)))
 (let ((?x8998 (stack_t x_0 x_1 x_MLOAD_0 2 n)))
 (let ((?x4023 (sc_t 1)))
 (let ((?x187 (bvadd (_ bv62 6) ?x4023)))
 (let (($x3235 (bvsle ?x187 n)))
 (or $x3235 (= ?x8998 ?x8118))))))))
 ))
 (let (($x1496 (= ?x4056 (bvadd (_ bv1 6) (sc_t 1)))))
 (let ((?x8389 (used_gas_t x_0 x_1 x_MLOAD_0 2)))
 (let ((?x4023 (sc_t 1)))
 (let ((?x5606 (bvadd (_ bv63 6) ?x4023)))
 (let ((?x5624 (stack_t x_0 x_1 x_MLOAD_0 1 ?x5606)))
 (let ((?x187 (bvadd (_ bv62 6) ?x4023)))
 (let ((?x8733 (stack_t x_0 x_1 x_MLOAD_0 1 ?x187)))
 (let (($x8823 (not (= ((_ extract 6 6) (bvadd (_ bv1 7) (concat (_ bv0 1) ?x63))) (_ bv0 1)))))
 (let (($x6367 (= $x1920 (or $x56 (not (bvsle (_ bv0 6) (bvadd (_ bv62 6) ?x63))) $x8823))))
 (let (($x8450 (forall ((w (_ BitVec 256)) )(let ((?x2959 (storage_t x_0 x_1 x_MLOAD_0 0 w)))
 (let ((?x8925 (storage_t x_0 x_1 x_MLOAD_0 1 w)))
 (= ?x8925 ?x2959))))
 ))
 (let (($x11251 (forall ((n (_ BitVec 6)) )(let ((?x10282 (stack_t x_0 x_1 x_MLOAD_0 0 n)))
 (let ((?x8118 (stack_t x_0 x_1 x_MLOAD_0 1 n)))
 (let ((?x63 (sc_t 0)))
 (let ((?x395 (bvadd (_ bv62 6) ?x63)))
 (let (($x9870 (bvsle ?x395 n)))
 (or $x9870 (= ?x8118 ?x10282))))))))
 ))
 (let (($x10931 (= ?x4023 (bvadd (_ bv1 6) ?x63))))
 (let (($x9529 (= (stack_t x_0 x_1 x_MLOAD_0 1 (bvadd (_ bv63 6) ?x63)) (stack_t x_0 x_1 x_MLOAD_0 0 (bvadd (_ bv63 6) ?x63)))))
 (let ((?x395 (bvadd (_ bv62 6) ?x63)))
 (let ((?x9019 (stack_t x_0 x_1 x_MLOAD_0 0 ?x395)))
 (let (($x6880 (= $x772 (or (exc_halt_s 5) (not (bvsle (_ bv0 6) (bvadd (_ bv60 6) (sc_s 5))))))))
 (let (($x4140 (forall ((w (_ BitVec 256)) )(let ((?x9158 (storage_s x_0 x_1 x_MLOAD_0 5 w)))
 (let ((?x979 (storage_s x_0 x_1 x_MLOAD_0 6 w)))
 (= ?x979 ?x9158))))
 ))
 (let (($x2422 (forall ((n (_ BitVec 6)) )(let ((?x5840 (stack_s x_0 x_1 x_MLOAD_0 5 n)))
 (let ((?x1327 (stack_s x_0 x_1 x_MLOAD_0 6 n)))
 (or (bvsle (bvadd (_ bv60 6) (sc_s 5)) n) (= ?x1327 ?x5840)))))
 ))
 (let ((?x805 (sc_s 5)))
 (let (($x8973 (= ?x926 ?x805)))
 (let (($x7214 (= (used_gas_s x_0 x_1 x_MLOAD_0 6) (+ 3 (used_gas_s x_0 x_1 x_MLOAD_0 5)))))
 (let (($x8688 (= (stack_s x_0 x_1 x_MLOAD_0 6 (bvadd (_ bv62 6) ?x926)) (stack_s x_0 x_1 x_MLOAD_0 5 (bvadd (_ bv62 6) ?x805)))))
 (let (($x8358 (= (stack_s x_0 x_1 x_MLOAD_0 6 (bvadd (_ bv61 6) ?x926)) (stack_s x_0 x_1 x_MLOAD_0 5 (bvadd (_ bv61 6) ?x805)))))
 (let ((?x1911 (bvadd (_ bv63 6) ?x805)))
 (let ((?x1253 (stack_s x_0 x_1 x_MLOAD_0 5 ?x1911)))
 (let (($x9217 (= (stack_s x_0 x_1 x_MLOAD_0 6 (bvadd (_ bv63 6) ?x926)) (stack_s x_0 x_1 x_MLOAD_0 5 (bvadd (_ bv60 6) ?x805)))))
 (let (($x3274 (not (= ((_ extract 6 6) (bvadd (_ bv1 7) (concat (_ bv0 1) (sc_s 4)))) (_ bv0 1)))))
 (let (($x64 (exc_halt_s 4)))
 (let (($x3979 (exc_halt_s 5)))
 (let (($x5888 (forall ((w (_ BitVec 256)) )(let ((?x3575 (storage_s x_0 x_1 x_MLOAD_0 4 w)))
 (let ((?x9158 (storage_s x_0 x_1 x_MLOAD_0 5 w)))
 (= ?x9158 ?x3575))))
 ))
 (let (($x5515 (forall ((n (_ BitVec 6)) )(let ((?x7905 (stack_s x_0 x_1 x_MLOAD_0 4 n)))
 (let ((?x5840 (stack_s x_0 x_1 x_MLOAD_0 5 n)))
 (or (bvsle (bvadd (_ bv59 6) (sc_s 4)) n) (= ?x5840 ?x7905)))))
 ))
 (let (($x4735 (= ?x805 (bvadd (_ bv1 6) (sc_s 4)))))
 (let ((?x6263 (used_gas_s x_0 x_1 x_MLOAD_0 5)))
 (let ((?x4305 (sc_s 4)))
 (let ((?x4412 (bvadd (_ bv63 6) ?x4305)))
 (let ((?x1775 (stack_s x_0 x_1 x_MLOAD_0 4 ?x4412)))
 (let (($x2892 (= (stack_s x_0 x_1 x_MLOAD_0 5 (bvadd (_ bv62 6) ?x4305)) (stack_s x_0 x_1 x_MLOAD_0 4 (bvadd (_ bv62 6) ?x4305)))))
 (let (($x5699 (= (stack_s x_0 x_1 x_MLOAD_0 5 (bvadd (_ bv61 6) ?x4305)) (stack_s x_0 x_1 x_MLOAD_0 4 (bvadd (_ bv61 6) ?x4305)))))
 (let (($x7861 (= (stack_s x_0 x_1 x_MLOAD_0 5 (bvadd (_ bv60 6) ?x4305)) (stack_s x_0 x_1 x_MLOAD_0 4 (bvadd (_ bv60 6) ?x4305)))))
 (let ((?x8821 (bvadd (_ bv59 6) ?x4305)))
 (let ((?x3376 (stack_s x_0 x_1 x_MLOAD_0 4 ?x8821)))
 (let (($x4995 (not (= ((_ extract 6 6) (bvadd (_ bv1 7) (concat (_ bv0 1) (sc_s 3)))) (_ bv0 1)))))
 (let (($x1036 (not (bvsle (_ bv0 6) (bvadd (_ bv63 6) (sc_s 3))))))
 (let (($x292 (exc_halt_s 3)))
 (let (($x1223 (forall ((w (_ BitVec 256)) )(let ((?x970 (storage_s x_0 x_1 x_MLOAD_0 3 w)))
 (let ((?x3575 (storage_s x_0 x_1 x_MLOAD_0 4 w)))
 (= ?x3575 ?x970))))
 ))
 (let (($x5897 (forall ((n (_ BitVec 6)) )(let ((?x275 (sc_s 3)))
 (let ((?x11204 (bvadd (_ bv63 6) ?x275)))
 (let (($x1953 (bvsle ?x11204 n)))
 (let ((?x8862 (stack_s x_0 x_1 x_MLOAD_0 3 n)))
 (let ((?x7905 (stack_s x_0 x_1 x_MLOAD_0 4 n)))
 (or (= ?x7905 ?x8862) $x1953)))))))
 ))
 (let (($x7686 (= ?x4305 (bvadd (_ bv1 6) (sc_s 3)))))
 (let ((?x5718 (used_gas_s x_0 x_1 x_MLOAD_0 4)))
 (let ((?x275 (sc_s 3)))
 (let ((?x11204 (bvadd (_ bv63 6) ?x275)))
 (let ((?x6097 (stack_s x_0 x_1 x_MLOAD_0 3 ?x11204)))
 (let (($x6983 (not (bvsle (_ bv0 6) (bvadd (_ bv62 6) (sc_s 2))))))
 (let (($x247 (exc_halt_s 2)))
 (let (($x110 (not (= ((_ extract 6 6) (bvadd (_ bv1 7) (concat (_ bv0 1) (sc_s 2)))) (_ bv0 1)))))
 (let (($x8949 (forall ((w (_ BitVec 256)) )(let ((?x5389 (storage_s x_0 x_1 x_MLOAD_0 2 w)))
 (let ((?x970 (storage_s x_0 x_1 x_MLOAD_0 3 w)))
 (= ?x970 ?x5389))))
 ))
 (let (($x8913 (forall ((n (_ BitVec 6)) )(let ((?x6921 (stack_s x_0 x_1 x_MLOAD_0 2 n)))
 (let ((?x8862 (stack_s x_0 x_1 x_MLOAD_0 3 n)))
 (let ((?x218 (sc_s 2)))
 (let ((?x1632 (bvadd (_ bv62 6) ?x218)))
 (let (($x1459 (bvsle ?x1632 n)))
 (or $x1459 (= ?x8862 ?x6921))))))))
 ))
 (let (($x389 (= ?x275 (bvadd (_ bv1 6) (sc_s 2)))))
 (let ((?x9191 (used_gas_s x_0 x_1 x_MLOAD_0 3)))
 (let ((?x218 (sc_s 2)))
 (let ((?x3669 (bvadd (_ bv63 6) ?x218)))
 (let ((?x5864 (stack_s x_0 x_1 x_MLOAD_0 2 ?x3669)))
 (let ((?x1632 (bvadd (_ bv62 6) ?x218)))
 (let ((?x1447 (stack_s x_0 x_1 x_MLOAD_0 2 ?x1632)))
 (let (($x4347 (= $x247 (or (exc_halt_s 1) (not (bvsle (_ bv0 6) (bvadd (_ bv63 6) (sc_s 1))))))))
 (let (($x8940 (forall ((w (_ BitVec 256)) )(let ((?x2504 (storage_s x_0 x_1 x_MLOAD_0 1 w)))
 (let ((?x5389 (storage_s x_0 x_1 x_MLOAD_0 2 w)))
 (= ?x5389 ?x2504))))
 ))
 (let (($x4219 (forall ((n (_ BitVec 6)) )(let ((?x154 (sc_s 1)))
 (let ((?x1806 (bvadd (_ bv63 6) ?x154)))
 (let (($x10480 (bvsle ?x1806 n)))
 (let ((?x8864 (stack_s x_0 x_1 x_MLOAD_0 1 n)))
 (let ((?x6921 (stack_s x_0 x_1 x_MLOAD_0 2 n)))
 (or (= ?x6921 ?x8864) $x10480)))))))
 ))
 (let ((?x154 (sc_s 1)))
 (let (($x1458 (= ?x218 ?x154)))
 (let ((?x8139 (used_gas_s x_0 x_1 x_MLOAD_0 2)))
 (let ((?x1806 (bvadd (_ bv63 6) ?x154)))
 (let ((?x6107 (stack_s x_0 x_1 x_MLOAD_0 1 ?x1806)))
 (let (($x7509 (not (bvsle (_ bv0 6) (bvadd (_ bv62 6) ?x72)))))
 (let (($x5069 (not (= ((_ extract 6 6) (bvadd (_ bv1 7) (concat (_ bv0 1) ?x72))) (_ bv0 1)))))
 (let (($x189 (exc_halt_s 1)))
 (let (($x4473 (= $x189 (or $x57 $x5069 $x7509))))
 (let (($x5851 (forall ((w (_ BitVec 256)) )(let ((?x6315 (storage_s x_0 x_1 x_MLOAD_0 0 w)))
 (let ((?x2504 (storage_s x_0 x_1 x_MLOAD_0 1 w)))
 (= ?x2504 ?x6315))))
 ))
 (let (($x2685 (forall ((n (_ BitVec 6)) )(let ((?x10544 (stack_s x_0 x_1 x_MLOAD_0 0 n)))
 (let ((?x8864 (stack_s x_0 x_1 x_MLOAD_0 1 n)))
 (let ((?x72 (sc_s 0)))
 (let ((?x1088 (bvadd (_ bv62 6) ?x72)))
 (let (($x1032 (bvsle ?x1088 n)))
 (or $x1032 (= ?x8864 ?x10544))))))))
 ))
 (let (($x10892 (= ?x154 (bvadd (_ bv1 6) ?x72))))
 (let (($x8952 (= (stack_s x_0 x_1 x_MLOAD_0 1 (bvadd (_ bv63 6) ?x72)) (stack_s x_0 x_1 x_MLOAD_0 0 (bvadd (_ bv63 6) ?x72)))))
 (let ((?x1088 (bvadd (_ bv62 6) ?x72)))
 (let ((?x4354 (stack_s x_0 x_1 x_MLOAD_0 0 ?x1088)))
 (let (($x8263 (forall ((w0 (_ BitVec 256)) )(let ((?x6272 (ite (= (stack_s x_0 x_1 x_MLOAD_0 1 (bvadd (_ bv63 6) (sc_s 1))) w0) x_MLOAD_0 (_ bv0 256))))
 (let ((?x2987 (f_MLOAD x_0 x_1 x_MLOAD_0 w0)))
 (= ?x2987 ?x6272))))
 ))
 (let (($x3681 (forall ((w (_ BitVec 256)) )(let ((?x6315 (storage_s x_0 x_1 x_MLOAD_0 0 w)))
 (= ?x6315 (_ bv0 256))))
 ))
 (let (($x5655 (= ?x2499 0)))
 (let (($x4490 (not $x57)))
 (let (($x8018 (= (stack_s x_0 x_1 x_MLOAD_0 0 (_ bv1 6)) x_1)))
 (let (($x9402 (= (stack_s x_0 x_1 x_MLOAD_0 0 (_ bv0 6)) x_0)))
 (let (($x3184 (= ?x72 (_ bv2 6))))
 (and $x3184 $x9402 $x8018 $x4490 $x5655 $x3681 $x8263 (= ?x6107 ?x4354) (= (stack_s x_0 x_1 x_MLOAD_0 1 ?x1088) ?x4354) $x8952 (= (used_gas_s x_0 x_1 x_MLOAD_0 1) (+ 3 ?x2499)) $x10892 $x2685 $x5851 $x4473 (= ?x5864 (f_MLOAD x_0 x_1 x_MLOAD_0 ?x6107)) (= ?x8139 (+ 3 (used_gas_s x_0 x_1 x_MLOAD_0 1))) $x1458 $x4219 $x8940 $x4347 (= ?x6097 ?x1447) (= (stack_s x_0 x_1 x_MLOAD_0 3 ?x1632) ?x1447) (= (stack_s x_0 x_1 x_MLOAD_0 3 ?x3669) ?x5864) (= ?x9191 (+ 3 ?x8139)) $x389 $x8913 $x8949 (= $x292 (or $x110 $x247 $x6983)) (= ?x1775 ?x6097) (= (stack_s x_0 x_1 x_MLOAD_0 4 ?x11204) ?x6097) (= ?x5718 (+ 3 ?x9191)) $x7686 $x5897 $x1223 (= $x64 (or $x292 $x1036 $x4995)) (= ?x1253 ?x3376) (= (stack_s x_0 x_1 x_MLOAD_0 5 ?x8821) ?x3376) $x7861 $x5699 $x2892 (= (stack_s x_0 x_1 x_MLOAD_0 5 ?x4412) ?x1775) (= ?x6263 (+ 3 ?x5718)) $x4735 $x5515 $x5888 (= $x3979 (or $x64 $x3274 (not (bvsle (_ bv0 6) ?x8821)))) $x9217 (= (stack_s x_0 x_1 x_MLOAD_0 6 (bvadd (_ bv60 6) ?x926)) ?x1253) $x8358 $x8688 $x7214 $x8973 $x2422 $x4140 $x6880 (= ?x5624 ?x9019) (= (stack_t x_0 x_1 x_MLOAD_0 1 ?x395) ?x9019) $x9529 (= (used_gas_t x_0 x_1 x_MLOAD_0 1) (+ 3 ?x9479)) $x10931 $x11251 $x8450 $x6367 (= ?x8596 ?x8733) (= (stack_t x_0 x_1 x_MLOAD_0 2 ?x187) ?x8733) (= (stack_t x_0 x_1 x_MLOAD_0 2 ?x5606) ?x5624) (= ?x8389 (+ 3 (used_gas_t x_0 x_1 x_MLOAD_0 1))) $x1496 $x8831 $x7760 $x4581 (= ?x7386 ?x2662) (= (stack_t x_0 x_1 x_MLOAD_0 3 ?x8110) ?x2662) $x9500 (= (stack_t x_0 x_1 x_MLOAD_0 3 ?x2466) ?x8596) (= ?x9709 (+ 3 ?x8389)) $x4906 $x8435 $x9146 (= $x10336 (or $x903 $x1242 (not (bvsle (_ bv0 6) ?x8110)))) (= ?x1335 ?x8172) (= (stack_t x_0 x_1 x_MLOAD_0 4 ?x1616) ?x8172) $x5612 $x7937 $x5891 (= (stack_t x_0 x_1 x_MLOAD_0 4 ?x8054) ?x7386) (= ?x6197 (+ 3 ?x9709)) $x3244 $x6210 $x6771 (= $x3723 (or $x1227 (not (bvsle (_ bv0 6) ?x1616)) $x10336)) $x4297 $x8251 $x9261 $x8571 $x5860 $x458 $x73 $x6495 $x58 $x7268 $x3344 (not (and $x929 $x6825 $x889 $x7833)))))))))))))))))))))))))))))))))))))))))))))))))))))))))))))))))))))))))))))))))))))))))))))))))))))))))))))))))))))))))))))))))))))))))))))))))))))))))
 )
(check-sat)
(get-proof)
